
Gurobi 9.1.2 (win64, Java) logging started Tue Nov  9 15:34:36 2021

Academic license - for non-commercial use only - expires 2022-10-30
Gurobi Optimizer version 9.1.2 build v9.1.2rc0 (win64)
Thread count: 6 physical cores, 12 logical processors, using up to 12 threads
Optimize a model with 450 rows, 45000 columns and 90000 nonzeros
Model fingerprint: 0xbdfa5810
Variable types: 0 continuous, 45000 integer (45000 binary)
Coefficient statistics:
  Matrix range     [1e+00, 1e+03]
  Objective range  [1e+00, 1e+03]
  Bounds range     [1e+00, 1e+00]
  RHS range        [1e+00, 1e+03]
Found heuristic solution: objective 90361.000000
Presolve removed 112 rows and 21935 columns
Presolve time: 0.39s
Presolved: 338 rows, 23065 columns, 46124 nonzeros
Found heuristic solution: objective 90522.000000
Variable types: 0 continuous, 23065 integer (23065 binary)
Presolve removed 0 rows and 4 columns
Presolved: 338 rows, 23061 columns, 46120 nonzeros


Root relaxation: objective 9.121375e+04, 730 iterations, 0.02 seconds

    Nodes    |    Current Node    |     Objective Bounds      |     Work
 Expl Unexpl |  Obj  Depth IntInf | Incumbent    BestBd   Gap | It/Node Time

     0     0 91213.7513    0    1 90522.0000 91213.7513  0.76%     -    0s

Cutting planes:
  Cover: 1

Explored 1 nodes (5569 simplex iterations) in 0.69 seconds
Thread count was 12 (of 12 available processors)

Solution count 2: 90522 90361 

Optimal solution found (tolerance 1.00e-04)
Best objective 9.052200000000e+04, best bound 9.052200000000e+04, gap 0.0000%

Gurobi 9.1.2 (win64, Java) logging started Tue Nov  9 15:35:37 2021

Academic license - for non-commercial use only - expires 2022-10-30
Gurobi Optimizer version 9.1.2 build v9.1.2rc0 (win64)
Thread count: 6 physical cores, 12 logical processors, using up to 12 threads
Optimize a model with 450 rows, 45000 columns and 90000 nonzeros
Model fingerprint: 0xbdfa5810
Variable types: 0 continuous, 45000 integer (45000 binary)
Coefficient statistics:
  Matrix range     [1e+00, 1e+03]
  Objective range  [1e+00, 1e+03]
  Bounds range     [1e+00, 1e+00]
  RHS range        [1e+00, 1e+03]
Found heuristic solution: objective 90361.000000
Presolve removed 112 rows and 21935 columns
Presolve time: 0.37s
Presolved: 338 rows, 23065 columns, 46124 nonzeros
Found heuristic solution: objective 90522.000000
Variable types: 0 continuous, 23065 integer (23065 binary)
Presolve removed 0 rows and 4 columns
Presolved: 338 rows, 23061 columns, 46120 nonzeros


Root relaxation: objective 9.121375e+04, 730 iterations, 0.02 seconds

    Nodes    |    Current Node    |     Objective Bounds      |     Work
 Expl Unexpl |  Obj  Depth IntInf | Incumbent    BestBd   Gap | It/Node Time

     0     0 91213.7513    0    1 90522.0000 91213.7513  0.76%     -    0s

Cutting planes:
  Cover: 1

Explored 1 nodes (5569 simplex iterations) in 0.64 seconds
Thread count was 12 (of 12 available processors)

Solution count 2: 90522 90361 

Optimal solution found (tolerance 1.00e-04)
Best objective 9.052200000000e+04, best bound 9.052200000000e+04, gap 0.0000%

Gurobi 9.1.2 (win64, Java) logging started Tue Nov  9 15:36:24 2021

Academic license - for non-commercial use only - expires 2022-10-30
Gurobi Optimizer version 9.1.2 build v9.1.2rc0 (win64)
Thread count: 6 physical cores, 12 logical processors, using up to 12 threads
Optimize a model with 450 rows, 45000 columns and 90000 nonzeros
Model fingerprint: 0xbdfa5810
Variable types: 0 continuous, 45000 integer (45000 binary)
Coefficient statistics:
  Matrix range     [1e+00, 1e+03]
  Objective range  [1e+00, 1e+03]
  Bounds range     [1e+00, 1e+00]
  RHS range        [1e+00, 1e+03]
Found heuristic solution: objective 90361.000000
Presolve removed 112 rows and 21935 columns
Presolve time: 0.40s
Presolved: 338 rows, 23065 columns, 46124 nonzeros
Found heuristic solution: objective 90522.000000
Variable types: 0 continuous, 23065 integer (23065 binary)
Presolve removed 0 rows and 4 columns
Presolved: 338 rows, 23061 columns, 46120 nonzeros


Root relaxation: objective 9.121375e+04, 730 iterations, 0.02 seconds

    Nodes    |    Current Node    |     Objective Bounds      |     Work
 Expl Unexpl |  Obj  Depth IntInf | Incumbent    BestBd   Gap | It/Node Time

     0     0 91213.7513    0    1 90522.0000 91213.7513  0.76%     -    0s

Cutting planes:
  Cover: 1

Explored 1 nodes (5569 simplex iterations) in 0.72 seconds
Thread count was 12 (of 12 available processors)

Solution count 2: 90522 90361 

Optimal solution found (tolerance 1.00e-04)
Best objective 9.052200000000e+04, best bound 9.052200000000e+04, gap 0.0000%

Gurobi 9.1.2 (win64, Java) logging started Tue Nov  9 15:36:53 2021

Academic license - for non-commercial use only - expires 2022-10-30
Gurobi Optimizer version 9.1.2 build v9.1.2rc0 (win64)
Thread count: 6 physical cores, 12 logical processors, using up to 12 threads
Optimize a model with 450 rows, 45000 columns and 90000 nonzeros
Model fingerprint: 0xbdfa5810
Variable types: 0 continuous, 45000 integer (45000 binary)
Coefficient statistics:
  Matrix range     [1e+00, 1e+03]
  Objective range  [1e+00, 1e+03]
  Bounds range     [1e+00, 1e+00]
  RHS range        [1e+00, 1e+03]
Found heuristic solution: objective 90361.000000
Presolve removed 112 rows and 21935 columns
Presolve time: 0.38s
Presolved: 338 rows, 23065 columns, 46124 nonzeros
Found heuristic solution: objective 90522.000000
Variable types: 0 continuous, 23065 integer (23065 binary)
Presolve removed 0 rows and 4 columns
Presolved: 338 rows, 23061 columns, 46120 nonzeros


Root relaxation: objective 9.121375e+04, 730 iterations, 0.02 seconds

    Nodes    |    Current Node    |     Objective Bounds      |     Work
 Expl Unexpl |  Obj  Depth IntInf | Incumbent    BestBd   Gap | It/Node Time

     0     0 91213.7513    0    1 90522.0000 91213.7513  0.76%     -    0s

Cutting planes:
  Cover: 1

Explored 1 nodes (5569 simplex iterations) in 0.68 seconds
Thread count was 12 (of 12 available processors)

Solution count 2: 90522 90361 

Optimal solution found (tolerance 1.00e-04)
Best objective 9.052200000000e+04, best bound 9.052200000000e+04, gap 0.0000%
